NAME: line_80_4
TYPE: TSP
COMMENT: line_80_4
DIMENSION: 80
EDGE_WEIGHT_TYPE: EUC_2D
NODE_COORD_SECTION
1 0.0 759.0
2 0.0 264.0
3 0.0 543.0
4 0.0 525.0
5 0.0 379.0
6 0.0 133.0
7 0.0 16.0
8 0.0 486.0
9 0.0 99.0
10 0.0 163.0
11 0.0 712.0
12 0.0 4.0
13 0.0 349.0
14 0.0 674.0
15 0.0 632.0
16 0.0 114.0
17 0.0 145.0
18 0.0 599.0
19 0.0 349.0
20 0.0 438.0
21 0.0 85.0
22 0.0 192.0
23 0.0 329.0
24 0.0 525.0
25 0.0 643.0
26 0.0 705.0
27 0.0 484.0
28 0.0 565.0
29 0.0 691.0
30 0.0 557.0
31 0.0 451.0
32 0.0 349.0
33 0.0 296.0
34 0.0 676.0
35 0.0 179.0
36 0.0 79.0
37 0.0 335.0
38 0.0 526.0
39 0.0 268.0
40 0.0 663.0
41 0.0 222.0
42 0.0 124.0
43 0.0 302.0
44 0.0 486.0
45 0.0 468.0
46 0.0 538.0
47 0.0 227.0
48 0.0 676.0
49 0.0 176.0
50 0.0 514.0
51 0.0 691.0
52 0.0 378.0
53 0.0 98.0
54 0.0 229.0
55 0.0 138.0
56 0.0 175.0
57 0.0 496.0
58 0.0 350.0
59 0.0 406.0
60 0.0 584.0
61 0.0 352.0
62 0.0 728.0
63 0.0 316.0
64 0.0 779.0
65 0.0 360.0
66 0.0 111.0
67 0.0 84.0
68 0.0 479.0
69 0.0 73.0
70 0.0 380.0
71 0.0 589.0
72 0.0 729.0
73 0.0 641.0
74 0.0 349.0
75 0.0 658.0
76 0.0 28.0
77 0.0 705.0
78 0.0 321.0
79 0.0 516.0
80 0.0 339.0
